Traveling Salesman Problem/TSP_generados/Aleatorio1620390892_7.tsp
NAME: Aleatorio1620390892_7.tsp
COMMENT: Randomly generated scenario
TYPE: TSP
DIMENSION: 7
EDGE_WEIGHT_TYPE: ATT
NODE_COORD_SECTION
1 40.87 11.07
2 23.68 10.86
3 42.89 27.02
4 16.76 13.06
5 47.92 25.79
6 31.87 16.37
7 12.47 32.29
