Traveling Salesman Problem/TSP_generados/Aleatorio1620390892_7.opt.tour
NAME: Aleatorio1620390892_7.opt.tour
COMMENT: Optimal solution for Aleatorio1620390892_7 (99.65210364944645)
TYPE: TOUR
DIMENSION: 7
TOUR_SECTION
1 5 3 7 4 2 6
-1
EOF
